n_res = 5;
n_events = 102;
n_prec = 248;
source = 1;
sink = 102;
min_lvl = [-5, 1, -2, -11, -10];
max_lvl = [15, 15, 14, 0, 4];
rr = [| 0, 0, -1, 2, 2, 0, 0, -1, 1, 1, -2, 0, 0, -1, 0, 2, 2, -2, 0, 0, 0, 1, -1, -1, 1, 0, 0, 1, 0, -2, 0, 1, 0, -2, 0, 2, 0, -2, 2, 0, 1, 0, -2, -1, 0, -1, 1, -1, 2, -1, 2, 0, 1, -1, 0, 2, 1, 0, -1, -1, 0, -1, 0, 2, 0, 2, -1, 0, -2, -2, -2, 1, -1, 0, -1, -2, 2, -2, -2, 1, 2, -2, 0, 1, -1, 0, 1, 0, 2, 0, 0, 0, 0, -2, -1, -1, 2, 0, 0, -1, 0, 0
      | 0, 0, 0, 1, 0, 0, 2, -1, 0, 1, 0, 0, 1, 0, 0, -1, -1, 1, 1, 0, -1, 2, 0, 0, 1, 0, 0, 2, 0, 1, 2, -2, 0, -2, 0, 0, 0, 0, 1, -1, 1, -2, 1, -2, 2, 0, -2, -2, 0, -1, -2, 2, 1, 0, 0, 0, -1, -2, 0, -1, 0, 2, 0, 0, -2, 1, 0, 0, 1, 2, 0, 2, 0, -2, 0, -1, -1, 0, -2, -1, -2, 1, 2, -1, 0, -1, 2, 2, 0, -1, -2, -1, 1, 2, 0, 0, 2, 0, 0, 0, 0, 0
      | 0, -1, -1, 2, -1, 0, 0, 0, -2, 2, 1, 1, -2, 1, -1, -1, 0, 2, 0, 1, 2, -1, 0, 2, -2, 0, 0, 0, 0, -1, -2, -2, -1, 0, 1, 0, 2, 0, 0, -1, 0, 2, 2, -1, 0, 0, 2, 2, 0, 1, 0, -1, 0, -2, 0, 1, -1, 0, 0, 1, 0, -1, -2, 2, 0, 1, 0, 2, 1, 0, 1, 0, -2, 1, 0, -1, -1, 0, 2, -1, 2, 0, -2, -2, 2, 0, 1, 2, -1, 2, 0, 0, 0, -2, 0, 0, 1, 0, 0, -2, 0, 0
      | 0, -1, 1, 0, -1, -2, 0, -1, -2, -1, 2, -2, 2, 0, -1, -1, 0, 1, 0, -2, 2, -1, 0, 0, 0, 1, 0, 1, 1, 2, 0, 0, 0, 0, -1, -2, 0, 0, -1, -1, -2, 0, 1, -2, 0, 0, 2, -2, 2, 0, 0, 0, 2, -1, 0, -1, 0, -2, 0, -1, -1, 0, 0, -2, 1, -1, -1, 0, 2, 0, 0, -2, 1, -1, -2, -2, -1, 0, 0, -2, 2, 0, 0, 2, 2, 0, 1, 2, 0, -1, 0, 2, 0, 1, 0, 0, 1, 2, -2, -1, 2, 0
      | 0, 0, 0, 0, -1, -2, 0, 0, 0, 2, -2, -2, -1, -2, 1, 2, 0, 0, -2, 0, 2, 1, 1, 0, -2, 2, 0, 0, 0, -1, -2, 1, 0, -2, 0, 0, 1, 2, -2, 0, 0, 2, 0, 2, 1, -1, 0, -2, 1, 0, 0, -1, -1, 0, 2, -2, -2, 0, 1, -2, -2, 1, 1, 0, -1, -1, -1, 0, 2, 0, 1, -2, 0, 0, -1, 0, -1, 0, -1, 2, 1, 0, 2, 0, 0, -2, 1, 0, 0, -2, 0, 0, 0, -1, 0, 0, 0, 0, 1, 1, 0, 0 |];
prec = [| 1, 0, 4
        | 1, 0, 6
        | 1, 0, 5
        | 1, 0, 3
        | 1, 0, 7
        | 1, 0, 8
        | 1, 0, 2
        | 2, 11, 30
        | 2, -1, 90
        | 2, 4, 70
        | 2, 23, 35
        | 3, 1, 96
        | 3, 0, 17
        | 4, 13, 9
        | 4, 16, 15
        | 5, 10, 98
        | 5, 3, 61
        | 5, 9, 101
        | 6, 17, 97
        | 6, -3, 18
        | 6, 16, 20
        | 7, 16, 84
        | 7, 18, 54
        | 8, 9, 50
        | 8, 4, 38
        | 9, 11, 58
        | 10, 14, 92
        | 10, 25, 73
        | 11, 6, 53
        | 11, 5, 56
        | 12, 4, 13
        | 12, 1, 46
        | 13, 3, 64
        | 13, 5, 21
        | 14, 1, 62
        | 14, 20, 94
        | 14, -5, 86
        | 15, 8, 9
        | 15, 7, 43
        | 15, 8, 73
        | 16, 17, 23
        | 16, 6, 29
        | 16, -4, 42
        | 16, 12, 44
        | 17, 18, 96
        | 18, -18, 28
        | 18, -33, 6
        | 18, -46, 20
        | 18, -2, 97
        | 18, 6, 55
        | 19, 1, 56
        | 20, -32, 6
        | 20, 7, 55
        | 20, 4, 28
        | 20, 9, 18
        | 21, 20, 49
        | 21, 20, 36
        | 22, 0, 39
        | 22, -1, 100
        | 22, 0, 57
        | 23, 15, 63
        | 24, 19, 84
        | 24, 18, 82
        | 24, 19, 23
        | 25, 1, 85
        | 25, 17, 67
        | 26, 0, 86
        | 26, -2, 21
        | 27, 0, 36
        | 27, 0, 95
        | 28, 0, 97
        | 28, 1, 18
        | 28, 1, 55
        | 28, -24, 20
        | 28, -47, 6
        | 29, 12, 23
        | 29, 2, 63
        | 29, 0, 78
        | 29, -4, 83
        | 29, -5, 25
        | 30, -6, 87
        | 31, -1, 76
        | 31, 9, 99
        | 31, 7, 80
        | 32, 0, 94
        | 33, 2, 50
        | 33, 0, 79
        | 34, 2, 79
        | 35, 6, 74
        | 35, 6, 94
        | 35, 3, 34
        | 35, -1, 76
        | 35, 0, 62
        | 36, 15, 61
        | 36, -5, 79
        | 36, 26, 60
        | 36, 17, 46
        | 37, -2, 33
        | 37, 2, 95
        | 38, 8, 88
        | 39, 0, 45
        | 40, 8, 76
        | 40, -2, 91
        | 41, 22, 92
        | 41, 21, 10
        | 42, 1, 65
        | 42, 1, 78
        | 43, -2, 9
        | 43, 11, 73
        | 43, 15, 41
        | 44, 1, 23
        | 44, 0, 69
        | 45, 3, 81
        | 45, 3, 57
        | 46, 5, 32
        | 46, 2, 35
        | 46, 20, 95
        | 47, 3, 22
        | 47, 1, 46
        | 48, 3, 25
        | 48, 6, 24
        | 48, -3, 85
        | 48, -3, 23
        | 49, 4, 52
        | 50, 3, 79
        | 50, 2, 91
        | 50, 3, 51
        | 51, 2, 40
        | 51, 2, 76
        | 52, 2, 60
        | 52, 1, 27
        | 52, 5, 100
        | 53, -1, 16
        | 53, 0, 75
        | 54, 0, 16
        | 54, 9, 66
        | 55, 9, 97
        | 55, -21, 18
        | 55, -41, 28
        | 55, -41, 6
        | 55, -24, 20
        | 56, 18, 84
        | 56, 28, 24
        | 56, 13, 85
        | 56, 13, 16
        | 57, 6, 78
        | 58, 4, 41
        | 58, 11, 72
        | 59, 7, 98
        | 60, 17, 100
        | 60, 18, 76
        | 60, 4, 86
        | 60, 10, 14
        | 61, 16, 70
        | 62, 10, 94
        | 62, 5, 86
        | 62, 9, 32
        | 63, 5, 25
        | 63, 8, 93
        | 63, 18, 67
        | 64, 10, 47
        | 65, 5, 89
        | 65, -1, 84
        | 65, 4, 82
        | 66, 0, 23
        | 66, 3, 71
        | 66, -3, 11
        | 66, 11, 63
        | 66, 7, 24
        | 66, 13, 57
        | 67, -4, 77
        | 67, 6, 93
        | 68, 2, 51
        | 68, 3, 99
        | 68, 3, 37
        | 69, 2, 93
        | 69, -2, 78
        | 69, 11, 42
        | 69, -1, 85
        | 70, 10, 98
        | 70, 7, 59
        | 71, 15, 19
        | 72, 1, 41
        | 72, 2, 10
        | 73, 2, 92
        | 74, 12, 60
        | 75, 1, 71
        | 75, 3, 56
        | 75, -2, 90
        | 76, 28, 79
        | 76, -6, 34
        | 77, 23, 93
        | 78, 0, 48
        | 79, 18, 95
        | 80, 9, 91
        | 80, 4, 68
        | 81, 2, 86
        | 81, 0, 60
        | 81, 14, 74
        | 81, 0, 26
        | 81, 5, 79
        | 82, 2, 63
        | 82, 5, 90
        | 82, 0, 93
        | 82, 13, 25
        | 82, -4, 77
        | 82, 6, 84
        | 82, 12, 67
        | 83, -7, 67
        | 83, -2, 44
        | 84, 4, 90
        | 84, 1, 67
        | 84, 27, 63
        | 84, 3, 25
        | 84, 17, 85
        | 84, -3, 77
        | 84, 14, 23
        | 84, 22, 93
        | 85, 14, 90
        | 86, 0, 94
        | 86, 2, 32
        | 87, 0, 12
        | 87, 0, 49
        | 88, 5, 91
        | 88, 2, 99
        | 88, 1, 31
        | 89, 7, 57
        | 90, -5, 67
        | 90, 3, 93
        | 90, -5, 77
        | 91, -5, 76
        | 91, -1, 79
        | 91, 9, 95
        | 92, 7, 102
        | 93, 4, 102
        | 94, 2, 102
        | 95, 8, 102
        | 96, 1, 102
        | 97, 6, 102
        | 97, -26, 55
        | 97, -47, 18
        | 97, -45, 20
        | 97, -46, 6
        | 97, -38, 28
        | 98, 2, 102
        | 99, 6, 102
        | 100, 2, 102
        | 101, 1, 102 |];
